jlh_hotel = 10; 

Nama_Hotel = {HotelSentral,PuriMega,PatraJasa,TheMediaHotel,BorobudurJakarta,GoldenBoutique,LeGrandeur,Classic,OrchardzPJayakarta,TrinitiJakarta};
golongan = {Bintang_1,Bintang_2,Bintang_3,Bintang_4,Bintang_5};
jenis = {Hotel_Bintang};

hotel = array2d(Nama_Hotel,1..5, 
[
HotelSentral           ,Bintang_3 ,Hotel_Bintang ,250, 100000,
PuriMega               ,Bintang_1 ,Hotel_Bintang ,125, 200000,
PatraJasa              ,Bintang_3 ,Hotel_Bintang ,52, 300000,
TheMediaHotel          ,Bintang_5 ,Hotel_Bintang ,350, 400000,
BorobudurJakarta       ,Bintang_5 ,Hotel_Bintang ,695, 500000,
GoldenBoutique         ,Bintang_4 ,Hotel_Bintang ,230, 600000,
LeGrandeur             ,Bintang_4 ,Hotel_Bintang ,351, 700000,
Classic                ,Bintang_4 ,Hotel_Bintang ,133, 800000,
OrchardzPJayakarta     ,Bintang_3 ,Hotel_Bintang ,160, 900000,
TrinitiJakarta         ,Bintang_3 ,Hotel_Bintang ,96, 1000000,
]);